\ENCODING=ISO-8859-1
\Problem name: ilog.cplex

Maximize
 obj: 748 x(0)#0 + 565 x(1)#1 + 1021 x(2)#2 + 953 x(3)#3 + 321 x(4)#4
      + 615 x(5)#5 + 882 x(6)#6 + 633 x(7)#7 + 728 x(8)#8 + 885 x(9)#9
      + 835 x(10)#10 + 706 x(11)#11 + 563 x(12)#12 + 934 x(13)#13
      + 595 x(14)#14 + 744 x(15)#15 + 498 x(16)#16 + 748 x(17)#17
      + 731 x(18)#18 + 882 x(19)#19 + 685 x(20)#20 + 661 x(21)#21
      + 439 x(22)#22 + 678 x(23)#23 + 656 x(24)#24 + 905 x(25)#25
      + 819 x(26)#26 + 1156 x(27)#27 + 478 x(28)#28 + 754 x(29)#29
      + 855 x(30)#30 + 793 x(31)#31 + 458 x(32)#32 + 1101 x(33)#33
      + 448 x(34)#34 + 702 x(35)#35 + 682 x(36)#36 + 717 x(37)#37
      + 481 x(38)#38 + 688 x(39)#39 + 934 x(40)#40 + 494 x(41)#41
      + 820 x(42)#42 + 542 x(43)#43 + 1029 x(44)#44 + 600 x(45)#45
      + 1179 x(46)#46 + 754 x(47)#47 + 1157 x(48)#48 + 752 x(49)#49
      + 973 x(50)#50 + 989 x(51)#51 + 703 x(52)#52 + 870 x(53)#53
      + 754 x(54)#54 + 542 x(55)#55 + 880 x(56)#56 + 801 x(57)#57
      + 909 x(58)#58 + 779 x(59)#59 + 570 x(60)#60 + 956 x(61)#61
      + 541 x(62)#62 + 752 x(63)#63 + 726 x(64)#64 + 325 x(65)#65
      + 808 x(66)#66 + 991 x(67)#67 + 603 x(68)#68 + 484 x(69)#69
      + 489 x(70)#70 + 876 x(71)#71 + 440 x(72)#72 + 864 x(73)#73
      + 677 x(74)#74 + 857 x(75)#75 + 842 x(76)#76 + 628 x(77)#77
      + 959 x(78)#78 + 844 x(79)#79 + 1270 x(80)#80 + 614 x(81)#81
      + 325 x(82)#82 + 565 x(83)#83 + 959 x(84)#84 + 786 x(85)#85
      + 672 x(86)#86 + 391 x(87)#87 + 1165 x(88)#88 + 680 x(89)#89
      + 685 x(90)#90 + 736 x(91)#91 + 398 x(92)#92 + 733 x(93)#93
      + 705 x(94)#94 + 937 x(95)#95 + 834 x(96)#96 + 789 x(97)#97
      + 613 x(98)#98 + 1037 x(99)#99 + 579 x(100)#100 + 882 x(101)#101
      + 775 x(102)#102 + 692 x(103)#103 + 695 x(104)#104 + 1079 x(105)#105
      + 904 x(106)#106 + 1046 x(107)#107 + 910 x(108)#108 + 888 x(109)#109
      + 484 x(110)#110 + 506 x(111)#111 + 897 x(112)#112 + 888 x(113)#113
      + 1067 x(114)#114 + 1065 x(115)#115 + 505 x(116)#116 + 923 x(117)#117
      + 843 x(118)#118 + 699 x(119)#119 + 986 x(120)#120 + 964 x(121)#121
      + 736 x(122)#122 + 859 x(123)#123 + 794 x(124)#124 + 884 x(125)#125
      + 639 x(126)#126 + 778 x(127)#127 + 740 x(128)#128 + 780 x(129)#129
      + 448 x(130)#130 + 790 x(131)#131 + 463 x(132)#132 + 679 x(133)#133
      + 878 x(134)#134 + 905 x(135)#135 + 922 x(136)#136 + 778 x(137)#137
      + 953 x(138)#138 + 936 x(139)#139 + 783 x(140)#140 + 1131 x(141)#141
      + 682 x(142)#142 + 905 x(143)#143 + 873 x(144)#144 + 753 x(145)#145
      + 586 x(146)#146 + 965 x(147)#147 + 571 x(148)#148 + 644 x(149)#149
      + 1029 x(150)#150 + 309 x(151)#151 + 600 x(152)#152 + 533 x(153)#153
      + 467 x(154)#154 + 887 x(155)#155 + 509 x(156)#156 + 776 x(157)#157
      + 963 x(158)#158 + 515 x(159)#159 + 947 x(160)#160 + 827 x(161)#161
      + 794 x(162)#162 + 534 x(163)#163 + 291 x(164)#164 + 599 x(165)#165
      + 790 x(166)#166 + 922 x(167)#167 + 705 x(168)#168 + 737 x(169)#169
      + 913 x(170)#170 + 838 x(171)#171 + 690 x(172)#172 + 892 x(173)#173
      + 713 x(174)#174 + 849 x(175)#175 + 612 x(176)#176 + 792 x(177)#177
      + 894 x(178)#178 + 593 x(179)#179 + 499 x(180)#180 + 646 x(181)#181
      + 860 x(182)#182 + 837 x(183)#183 + 633 x(184)#184 + 545 x(185)#185
      + 750 x(186)#186 + 813 x(187)#187 + 480 x(188)#188 + 520 x(189)#189
      + 756 x(190)#190 + 623 x(191)#191 + 572 x(192)#192 + 797 x(193)#193
      + 621 x(194)#194 + 490 x(195)#195 + 402 x(196)#196 + 897 x(197)#197
      + 769 x(198)#198 + 768 x(199)#199 + 572 x(200)#200 + 495 x(201)#201
      + 546 x(202)#202 + 513 x(203)#203 + 947 x(204)#204 + 1020 x(205)#205
      + 708 x(206)#206 + 975 x(207)#207 + 543 x(208)#208 + 948 x(209)#209
      + 1045 x(210)#210 + 718 x(211)#211 + 745 x(212)#212 + 467 x(213)#213
      + 894 x(214)#214 + 490 x(215)#215 + 927 x(216)#216 + 1123 x(217)#217
      + 563 x(218)#218 + 492 x(219)#219 + 891 x(220)#220 + 645 x(221)#221
      + 588 x(222)#222 + 623 x(223)#223 + 567 x(224)#224 + 841 x(225)#225
      + 583 x(226)#226 + 545 x(227)#227 + 667 x(228)#228 + 610 x(229)#229
      + 521 x(230)#230 + 719 x(231)#231 + 707 x(232)#232 + 737 x(233)#233
      + 1201 x(234)#234 + 631 x(235)#235 + 355 x(236)#236 + 575 x(237)#237
      + 773 x(238)#238 + 607 x(239)#239 + 541 x(240)#240 + 700 x(241)#241
      + 748 x(242)#242 + 758 x(243)#243 + 845 x(244)#244 + 1215 x(245)#245
      + 1004 x(246)#246 + 666 x(247)#247 + 837 x(248)#248 + 775 x(249)#249
Subject To
 c1: 360 x(0)#0 + 223 x(1)#1 + 357 x(2)#2 + 557 x(3)#3 + 353 x(4)#4
     + 539 x(5)#5 + 827 x(6)#6 + 90 x(7)#7 + 536 x(8)#8 + 487 x(9)#9
     + 755 x(10)#10 + 190 x(11)#11 + 221 x(12)#12 + 649 x(13)#13 + 461 x(14)#14
     + 101 x(15)#15 + 244 x(16)#16 + 495 x(17)#17 + 921 x(18)#18 + 809 x(19)#19
     + 882 x(20)#20 + 558 x(21)#21 + 120 x(22)#22 + 840 x(23)#23 + 807 x(24)#24
     + 766 x(25)#25 + 779 x(26)#26 + 632 x(27)#27 + 496 x(28)#28 + 145 x(29)#29
     + 636 x(30)#30 + 467 x(31)#31 + 122 x(32)#32 + 543 x(33)#33 + 175 x(34)#34
     + 11 x(35)#35 + 222 x(36)#36 + 771 x(37)#37 + 46 x(38)#38 + 51 x(39)#39
     + 736 x(40)#40 + 323 x(41)#41 + 319 x(42)#42 + 883 x(43)#43 + 749 x(44)#44
     + 922 x(45)#45 + 638 x(46)#46 + 521 x(47)#47 + 983 x(48)#48 + 301 x(49)#49
     + 210 x(50)#50 + 136 x(51)#51 + 658 x(52)#52 + 752 x(53)#53 + 752 x(54)#54
     + 42 x(55)#55 + 340 x(56)#56 + 942 x(57)#57 + 577 x(58)#58 + 780 x(59)#59
     + 143 x(60)#60 + 530 x(61)#61 + 477 x(62)#62 + 238 x(63)#63 + 829 x(64)#64
     + 305 x(65)#65 + 493 x(66)#66 + 511 x(67)#67 + 336 x(68)#68 + 692 x(69)#69
     + 26 x(70)#70 + 611 x(71)#71 + 183 x(72)#72 + 886 x(73)#73 + 814 x(74)#74
     + 924 x(75)#75 + 71 x(76)#76 + 393 x(77)#77 + 93 x(78)#78 + 177 x(79)#79
     + 128 x(80)#80 + 289 x(81)#81 + 763 x(82)#82 + 257 x(83)#83 + 859 x(84)#84
     + 837 x(85)#85 + 653 x(86)#86 + 246 x(87)#87 + 820 x(88)#88 + 106 x(89)#89
     + 863 x(90)#90 + 273 x(91)#91 + 147 x(92)#92 + 638 x(93)#93 + 424 x(94)#94
     + 849 x(95)#95 + 170 x(96)#96 + 164 x(97)#97 + 711 x(98)#98 + 955 x(99)#99
     + 109 x(100)#100 + 557 x(101)#101 + 405 x(102)#102 + 953 x(103)#103
     + 621 x(104)#104 + 912 x(105)#105 + 727 x(106)#106 + 586 x(107)#107
     + 716 x(108)#108 + 535 x(109)#109 + 146 x(110)#110 + 693 x(111)#111
     + 518 x(112)#112 + 850 x(113)#113 + 573 x(114)#114 + 789 x(115)#115
     + 163 x(116)#116 + 312 x(117)#117 + 860 x(118)#118 + 699 x(119)#119
     + 759 x(120)#120 + 345 x(121)#121 + 99 x(122)#122 + 255 x(123)#123
     + 917 x(124)#124 + 100 x(125)#125 + 45 x(126)#126 + 140 x(127)#127
     + 135 x(128)#128 + 713 x(129)#129 + 879 x(130)#130 + 214 x(131)#131
     + 183 x(132)#132 + 102 x(133)#133 + 623 x(134)#134 + 84 x(135)#135
     + 331 x(136)#136 + 842 x(137)#137 + 36 x(138)#138 + 814 x(139)#139
     + 666 x(140)#140 + 835 x(141)#141 + 380 x(142)#142 + 589 x(143)#143
     + 833 x(144)#144 + 8 x(145)#145 + 744 x(146)#146 + 860 x(147)#147
     + 404 x(148)#148 + 758 x(149)#149 + 912 x(150)#150 + 475 x(151)#151
     + 741 x(152)#152 + 147 x(153)#153 + 397 x(154)#154 + 541 x(155)#155
     + 478 x(156)#156 + 564 x(157)#157 + 403 x(158)#158 + 543 x(159)#159
     + 558 x(160)#160 + 711 x(161)#161 + 923 x(162)#162 + 440 x(163)#163
     + 421 x(164)#164 + 920 x(165)#165 + 81 x(166)#166 + 374 x(167)#167
     + 663 x(168)#168 + 980 x(169)#169 + 523 x(170)#170 + 830 x(171)#171
     + 291 x(172)#172 + 334 x(173)#173 + 876 x(174)#174 + 744 x(175)#175
     + 753 x(176)#176 + 724 x(177)#177 + 795 x(178)#178 + 343 x(179)#179
     + 405 x(180)#180 + 705 x(181)#181 + 375 x(182)#182 + 700 x(183)#183
     + 422 x(184)#184 + 402 x(185)#185 + 519 x(186)#186 + 693 x(187)#187
     + 381 x(188)#188 + 927 x(189)#189 + 595 x(190)#190 + 617 x(191)#191
     + 806 x(192)#192 + 551 x(193)#193 + 419 x(194)#194 + 688 x(195)#195
     + 304 x(196)#196 + 82 x(197)#197 + 979 x(198)#198 + 549 x(199)#199
     + 579 x(200)#200 + 796 x(201)#201 + 620 x(202)#202 + 67 x(203)#203
     + 486 x(204)#204 + 623 x(205)#205 + 210 x(206)#206 + 632 x(207)#207
     + 102 x(208)#208 + 894 x(209)#209 + 823 x(210)#210 + 548 x(211)#211
     + 679 x(212)#212 + 305 x(213)#213 + 314 x(214)#214 + 935 x(215)#215
     + 994 x(216)#216 + 699 x(217)#217 + 102 x(218)#218 + 14 x(219)#219
     + 562 x(220)#220 + 709 x(221)#221 + 212 x(222)#222 + 980 x(223)#223
     + 87 x(224)#224 + 328 x(225)#225 + 289 x(226)#226 + 528 x(227)#227
     + 838 x(228)#228 + 517 x(229)#229 + 13 x(230)#230 + 162 x(231)#231
     + 806 x(232)#232 + 469 x(233)#233 + 409 x(234)#234 + 165 x(235)#235
     + 531 x(236)#236 + 311 x(237)#237 + 989 x(238)#238 + 780 x(239)#239
     + 241 x(240)#240 + 277 x(241)#241 + 108 x(242)#242 + 300 x(243)#243
     + 120 x(244)#244 + 957 x(245)#245 + 520 x(246)#246 + 29 x(247)#247
     + 258 x(248)#248 + 496 x(249)#249 <= 63063
 c2: 901 x(0)#0 + 783 x(1)#1 + 645 x(2)#2 + 141 x(3)#3 + 111 x(4)#4
     + 142 x(5)#5 + 681 x(6)#6 + 539 x(7)#7 + 635 x(8)#8 + 38 x(9)#9
     + 416 x(10)#10 + 864 x(11)#11 + 839 x(12)#12 + 662 x(13)#13 + 449 x(14)#14
     + 804 x(15)#15 + 848 x(16)#16 + 508 x(17)#17 + 931 x(18)#18 + 557 x(19)#19
     + 318 x(20)#20 + 379 x(21)#21 + 601 x(22)#22 + 569 x(23)#23 + 41 x(24)#24
     + 863 x(25)#25 + 154 x(26)#26 + 845 x(27)#27 + 587 x(28)#28 + 724 x(29)#29
     + 85 x(30)#30 + 720 x(31)#31 + 547 x(32)#32 + 722 x(33)#33 + 15 x(34)#34
     + 775 x(35)#35 + 644 x(36)#36 + 441 x(37)#37 + 172 x(38)#38 + 78 x(39)#39
     + 906 x(40)#40 + 204 x(41)#41 + 423 x(42)#42 + 83 x(43)#43 + 216 x(44)#44
     + 551 x(45)#45 + 610 x(46)#46 + 779 x(47)#47 + 777 x(48)#48 + 456 x(49)#49
     + 876 x(50)#50 + 537 x(51)#51 + 565 x(52)#52 + 215 x(53)#53 + 454 x(54)#54
     + 171 x(55)#55 + 663 x(56)#56 + 244 x(57)#57 + 124 x(58)#58 + 474 x(59)#59
     + 601 x(60)#60 + 589 x(61)#61 + 651 x(62)#62 + 164 x(63)#63 + 855 x(64)#64
     + 61 x(65)#65 + 438 x(66)#66 + 715 x(67)#67 + 427 x(68)#68 + 803 x(69)#69
     + 985 x(70)#70 + 780 x(71)#71 + 197 x(72)#72 + 56 x(73)#73 + 394 x(74)#74
     + 224 x(75)#75 + 560 x(76)#76 + 230 x(77)#77 + 539 x(78)#78 + 306 x(79)#79
     + 918 x(80)#80 + 113 x(81)#81 + 16 x(82)#82 + 516 x(83)#83 + 593 x(84)#84
     + 126 x(85)#85 + 608 x(86)#86 + 578 x(87)#87 + 358 x(88)#88 + 965 x(89)#89
     + 294 x(90)#90 + 363 x(91)#91 + 146 x(92)#92 + 552 x(93)#93 + 436 x(94)#94
     + 555 x(95)#95 + 449 x(96)#96 + 777 x(97)#97 + 908 x(98)#98 + 82 x(99)#99
     + 339 x(100)#100 + 822 x(101)#101 + 615 x(102)#102 + 107 x(103)#103
     + 253 x(104)#104 + 531 x(105)#105 + 89 x(106)#106 + 812 x(107)#107
     + 625 x(108)#108 + 923 x(109)#109 + 19 x(110)#110 + 160 x(111)#111
     + 869 x(112)#112 + 22 x(113)#113 + 918 x(114)#114 + 237 x(115)#115
     + 531 x(116)#116 + 617 x(117)#117 + 712 x(118)#118 + 990 x(119)#119
     + 694 x(120)#120 + 681 x(121)#121 + 384 x(122)#122 + 817 x(123)#123
     + 71 x(124)#124 + 901 x(125)#125 + 297 x(126)#126 + 790 x(127)#127
     + 907 x(128)#128 + 751 x(129)#129 + 104 x(130)#130 + 548 x(131)#131
     + 757 x(132)#132 + 840 x(133)#133 + 862 x(134)#134 + 995 x(135)#135
     + 394 x(136)#136 + 846 x(137)#137 + 725 x(138)#138 + 161 x(139)#139
     + 121 x(140)#140 + 446 x(141)#141 + 138 x(142)#142 + 821 x(143)#143
     + 111 x(144)#144 + 705 x(145)#145 + 606 x(146)#146 + 533 x(147)#147
     + 771 x(148)#148 + 249 x(149)#149 + 716 x(150)#150 + 8 x(151)#151
     + 350 x(152)#152 + 632 x(153)#153 + 570 x(154)#154 + 459 x(155)#155
     + 488 x(156)#156 + 748 x(157)#157 + 88 x(158)#158 + 164 x(159)#159
     + 147 x(160)#160 + 909 x(161)#161 + 395 x(162)#162 + 568 x(163)#163
     + 89 x(164)#164 + 402 x(165)#165 + 598 x(166)#166 + 477 x(167)#167
     + 660 x(168)#168 + 191 x(169)#169 + 436 x(170)#170 + 902 x(171)#171
     + 25 x(172)#172 + 743 x(173)#173 + 824 x(174)#174 + 938 x(175)#175
     + 771 x(176)#176 + 729 x(177)#177 + 328 x(178)#178 + 251 x(179)#179
     + 201 x(180)#180 + 940 x(181)#181 + 950 x(182)#182 + 168 x(183)#183
     + 351 x(184)#184 + 193 x(185)#185 + 485 x(186)#186 + 162 x(187)#187
     + 5 x(188)#188 + 101 x(189)#189 + 43 x(190)#190 + 142 x(191)#191
     + 738 x(192)#192 + 620 x(193)#193 + 371 x(194)#194 + 382 x(195)#195
     + 702 x(196)#196 + 340 x(197)#197 + 767 x(198)#198 + 520 x(199)#199
     + 898 x(200)#200 + 199 x(201)#201 + 48 x(202)#202 + 220 x(203)#203
     + 112 x(204)#204 + 582 x(205)#205 + 845 x(206)#206 + 558 x(207)#207
     + 858 x(208)#208 + 29 x(209)#209 + 485 x(210)#210 + 24 x(211)#211
     + 972 x(212)#212 + 971 x(213)#213 + 741 x(214)#214 + 405 x(215)#215
     + 672 x(216)#216 + 790 x(217)#217 + 912 x(218)#218 + 117 x(219)#219
     + 493 x(220)#220 + 24 x(221)#221 + 929 x(222)#222 + 123 x(223)#223
     + 591 x(224)#224 + 996 x(225)#225 + 777 x(226)#226 + 15 x(227)#227
     + 533 x(228)#228 + 615 x(229)#229 + 386 x(230)#230 + 564 x(231)#231
     + 373 x(232)#232 + 14 x(233)#233 + 840 x(234)#234 + 546 x(235)#235
     + 351 x(236)#236 + 859 x(237)#237 + 738 x(238)#238 + 130 x(239)#239
     + 492 x(240)#240 + 359 x(241)#241 + 932 x(242)#242 + 803 x(243)#243
     + 501 x(244)#244 + 982 x(245)#245 + 25 x(246)#246 + 55 x(247)#247
     + 635 x(248)#248 + 517 x(249)#249 <= 62335
 c3: 627 x(0)#0 + 532 x(1)#1 + 857 x(2)#2 + 477 x(3)#3 + 354 x(4)#4
     + 371 x(5)#5 + 571 x(6)#6 + 125 x(7)#7 + 350 x(8)#8 + 579 x(9)#9
     + 710 x(10)#10 + 777 x(11)#11 + 309 x(12)#12 + 611 x(13)#13 + 461 x(14)#14
     + 988 x(15)#15 + 316 x(16)#16 + 865 x(17)#17 + 510 x(18)#18 + 830 x(19)#19
     + 414 x(20)#20 + 37 x(21)#21 + 208 x(22)#22 + 141 x(23)#23 + 748 x(24)#24
     + 21 x(25)#25 + 699 x(26)#26 + 437 x(27)#27 + 42 x(28)#28 + 623 x(29)#29
     + 438 x(30)#30 + 984 x(31)#31 + 326 x(32)#32 + 936 x(33)#33 + 193 x(34)#34
     + 708 x(35)#35 + 999 x(36)#36 + 391 x(37)#37 + 350 x(38)#38 + 535 x(39)#39
     + 977 x(40)#40 + 896 x(41)#41 + 696 x(42)#42 + 739 x(43)#43 + 698 x(44)#44
     + 434 x(45)#45 + 721 x(46)#46 + 449 x(47)#47 + 900 x(48)#48 + 480 x(49)#49
     + 621 x(50)#50 + 806 x(51)#51 + 321 x(52)#52 + 600 x(53)#53 + 656 x(54)#54
     + 313 x(55)#55 + 936 x(56)#56 + 965 x(57)#57 + 744 x(58)#58 + 696 x(59)#59
     + 873 x(60)#60 + 548 x(61)#61 + 161 x(62)#62 + 773 x(63)#63 + 161 x(64)#64
     + 872 x(65)#65 + 933 x(66)#66 + 629 x(67)#67 + 78 x(68)#68 + 14 x(69)#69
     + 320 x(70)#70 + 802 x(71)#71 + 2 x(72)#72 + 648 x(73)#73 + 148 x(74)#74
     + 237 x(75)#75 + 248 x(76)#76 + 603 x(77)#77 + 522 x(78)#78 + 469 x(79)#79
     + 936 x(80)#80 + 175 x(81)#81 + 211 x(82)#82 + 229 x(83)#83 + 979 x(84)#84
     + 234 x(85)#85 + 362 x(86)#86 + 17 x(87)#87 + 949 x(88)#88 + 171 x(89)#89
     + 305 x(90)#90 + 407 x(91)#91 + 668 x(92)#92 + 438 x(93)#93 + 302 x(94)#94
     + 142 x(95)#95 + 973 x(96)#96 + 437 x(97)#97 + 468 x(98)#98 + 743 x(99)#99
     + 953 x(100)#100 + 545 x(101)#101 + 912 x(102)#102 + 405 x(103)#103
     + 994 x(104)#104 + 995 x(105)#105 + 754 x(106)#106 + 670 x(107)#107
     + 32 x(108)#108 + 229 x(109)#109 + 183 x(110)#110 + 327 x(111)#111
     + 761 x(112)#112 + 591 x(113)#113 + 537 x(114)#114 + 898 x(115)#115
     + 748 x(116)#116 + 827 x(117)#117 + 734 x(118)#118 + 142 x(119)#119
     + 164 x(120)#120 + 728 x(121)#121 + 857 x(122)#122 + 882 x(123)#123
     + 349 x(124)#124 + 766 x(125)#125 + 699 x(126)#126 + 393 x(127)#127
     + 56 x(128)#128 + 974 x(129)#129 + 222 x(130)#130 + 380 x(131)#131
     + 447 x(132)#132 + 687 x(133)#133 + 743 x(134)#134 + 338 x(135)#135
     + 439 x(136)#136 + 952 x(137)#137 + 697 x(138)#138 + 960 x(139)#139
     + 424 x(140)#140 + 985 x(141)#141 + 370 x(142)#142 + 281 x(143)#143
     + 630 x(144)#144 + 616 x(145)#145 + 655 x(146)#146 + 204 x(147)#147
     + 525 x(148)#148 + 668 x(149)#149 + 829 x(150)#150 + 248 x(151)#151
     + 182 x(152)#152 + 739 x(153)#153 + 62 x(154)#154 + 489 x(155)#155
     + 211 x(156)#156 + 708 x(157)#157 + 840 x(158)#158 + 39 x(159)#159
     + 628 x(160)#160 + 684 x(161)#161 + 581 x(162)#162 + 226 x(163)#163
     + 64 x(164)#164 + 313 x(165)#165 + 77 x(166)#166 + 336 x(167)#167
     + 283 x(168)#168 + 16 x(169)#169 + 963 x(170)#170 + 690 x(171)#171
     + 338 x(172)#172 + 246 x(173)#173 + 625 x(174)#174 + 330 x(175)#175
     + 255 x(176)#176 + 153 x(177)#177 + 116 x(178)#178 + 901 x(179)#179
     + 580 x(180)#180 + 444 x(181)#181 + 351 x(182)#182 + 712 x(183)#183
     + 290 x(184)#184 + 165 x(185)#185 + 153 x(186)#186 + 491 x(187)#187
     + 623 x(188)#188 + 607 x(189)#189 + 863 x(190)#190 + 32 x(191)#191
     + 128 x(192)#192 + 246 x(193)#193 + 263 x(194)#194 + 331 x(195)#195
     + 308 x(196)#196 + 694 x(197)#197 + 521 x(198)#198 + 807 x(199)#199
     + 389 x(200)#200 + x(201)#201 + 725 x(202)#202 + 268 x(203)#203
     + 829 x(204)#204 + 325 x(205)#205 + 141 x(206)#206 + 681 x(207)#207
     + 268 x(208)#208 + 730 x(209)#209 + 969 x(210)#210 + 331 x(211)#211
     + 955 x(212)#212 + 12 x(213)#213 + 580 x(214)#214 + 44 x(215)#215
     + 464 x(216)#216 + 909 x(217)#217 + 90 x(218)#218 + 210 x(219)#219
     + 487 x(220)#220 + 207 x(221)#221 + 14 x(222)#222 + 836 x(223)#223
     + 917 x(224)#224 + 660 x(225)#225 + 413 x(226)#226 + 101 x(227)#227
     + 756 x(228)#228 + 270 x(229)#229 + 332 x(230)#230 + 206 x(231)#231
     + 613 x(232)#232 + 510 x(233)#233 + 730 x(234)#234 + 461 x(235)#235
     + 417 x(236)#236 + 165 x(237)#237 + 989 x(238)#238 + 288 x(239)#239
     + 293 x(240)#240 + 820 x(241)#241 + 526 x(242)#242 + 663 x(243)#243
     + 761 x(244)#244 + 931 x(245)#245 + 979 x(246)#246 + 805 x(247)#247
     + 904 x(248)#248 + 499 x(249)#249 <= 63934
 c4: 328 x(0)#0 + 93 x(1)#1 + 781 x(2)#2 + 421 x(3)#3 + 421 x(4)#4 + 891 x(5)#5
     + 345 x(6)#6 + 479 x(7)#7 + 510 x(8)#8 + 769 x(9)#9 + 591 x(10)#10
     + 418 x(11)#11 + 646 x(12)#12 + 127 x(13)#13 + 195 x(14)#14 + 157 x(15)#15
     + 448 x(16)#16 + 399 x(17)#17 + 302 x(18)#18 + 879 x(19)#19 + 890 x(20)#20
     + 309 x(21)#21 + 107 x(22)#22 + 982 x(23)#23 + 130 x(24)#24 + 498 x(25)#25
     + 487 x(26)#26 + 858 x(27)#27 + 125 x(28)#28 + 995 x(29)#29 + 194 x(30)#30
     + 944 x(31)#31 + 356 x(32)#32 + 411 x(33)#33 + 856 x(34)#34 + 560 x(35)#35
     + 862 x(36)#36 + 845 x(37)#37 + 150 x(38)#38 + 270 x(39)#39 + 228 x(40)#40
     + 696 x(41)#41 + 300 x(42)#42 + 146 x(43)#43 + 478 x(44)#44 + 744 x(45)#45
     + 904 x(46)#46 + 646 x(47)#47 + 848 x(48)#48 + 32 x(49)#49 + 684 x(50)#50
     + 745 x(51)#51 + 908 x(52)#52 + 650 x(53)#53 + 941 x(54)#54 + 328 x(55)#55
     + 86 x(56)#56 + 186 x(57)#57 + 619 x(58)#58 + 152 x(59)#59 + 242 x(60)#60
     + 358 x(61)#61 + 679 x(62)#62 + 340 x(63)#63 + 926 x(64)#64 + 102 x(65)#65
     + 296 x(66)#66 + 873 x(67)#67 + 991 x(68)#68 + 90 x(69)#69 + 59 x(70)#70
     + 618 x(71)#71 + 805 x(72)#72 + 832 x(73)#73 + 678 x(74)#74 + 628 x(75)#75
     + 493 x(76)#76 + 370 x(77)#77 + 354 x(78)#78 + 698 x(79)#79 + 930 x(80)#80
     + 442 x(81)#81 + 372 x(82)#82 + 214 x(83)#83 + 522 x(84)#84 + 421 x(85)#85
     + 483 x(86)#86 + 219 x(87)#87 + 730 x(88)#88 + 512 x(89)#89 + 255 x(90)#90
     + 342 x(91)#91 + 666 x(92)#92 + 77 x(93)#93 + 621 x(94)#94 + 262 x(95)#95
     + 518 x(96)#96 + 388 x(97)#97 + 829 x(98)#98 + 775 x(99)#99
     + 345 x(100)#100 + 226 x(101)#101 + 952 x(102)#102 + 195 x(103)#103
     + 673 x(104)#104 + 490 x(105)#105 + 122 x(106)#106 + 979 x(107)#107
     + 3 x(108)#108 + 830 x(109)#109 + 691 x(110)#110 + 280 x(111)#111
     + 189 x(112)#112 + 299 x(113)#113 + 941 x(114)#114 + 668 x(115)#115
     + 326 x(116)#116 + 479 x(117)#117 + 877 x(118)#118 + 567 x(119)#119
     + 429 x(120)#120 + 316 x(121)#121 + 562 x(122)#122 + 354 x(123)#123
     + 380 x(124)#124 + 850 x(125)#125 + 974 x(126)#126 + 374 x(127)#127
     + 875 x(128)#128 + 622 x(129)#129 + 487 x(130)#130 + 315 x(131)#131
     + 339 x(132)#132 + 597 x(133)#133 + 701 x(134)#134 + 687 x(135)#135
     + 833 x(136)#136 + 38 x(137)#137 + 33 x(138)#138 + 476 x(139)#139
     + 127 x(140)#140 + 690 x(141)#141 + 442 x(142)#142 + 448 x(143)#143
     + 154 x(144)#144 + 868 x(145)#145 + 111 x(146)#146 + 587 x(147)#147
     + 557 x(148)#148 + 657 x(149)#149 + 419 x(150)#150 + 371 x(151)#151
     + 512 x(152)#152 + 566 x(153)#153 + 780 x(154)#154 + 287 x(155)#155
     + 248 x(156)#156 + 348 x(157)#157 + 377 x(158)#158 + 125 x(159)#159
     + 541 x(160)#160 + 748 x(161)#161 + 839 x(162)#162 + 476 x(163)#163
     + 271 x(164)#164 + 754 x(165)#165 + 98 x(166)#166 + 568 x(167)#167
     + 245 x(168)#168 + 276 x(169)#169 + 724 x(170)#170 + 33 x(171)#171
     + 706 x(172)#172 + 727 x(173)#173 + 895 x(174)#174 + 811 x(175)#175
     + 313 x(176)#176 + 542 x(177)#177 + 602 x(178)#178 + 460 x(179)#179
     + 338 x(180)#180 + 993 x(181)#181 + 398 x(182)#182 + 575 x(183)#183
     + 875 x(184)#184 + 54 x(185)#185 + 685 x(186)#186 + 403 x(187)#187
     + 16 x(188)#188 + 451 x(189)#189 + 463 x(190)#190 + 210 x(191)#191
     + 22 x(192)#192 + 303 x(193)#193 + 292 x(194)#194 + 178 x(195)#195
     + 82 x(196)#196 + 763 x(197)#197 + 392 x(198)#198 + 862 x(199)#199
     + 669 x(200)#200 + 292 x(201)#201 + 738 x(202)#202 + 730 x(203)#203
     + 924 x(204)#204 + 925 x(205)#205 + 723 x(206)#206 + 457 x(207)#207
     + 953 x(208)#208 + 535 x(209)#209 + 510 x(210)#210 + 102 x(211)#211
     + 435 x(212)#212 + 272 x(213)#213 + 788 x(214)#214 + 516 x(215)#215
     + 606 x(216)#216 + 932 x(217)#217 + 661 x(218)#218 + 366 x(219)#219
     + 306 x(220)#220 + 782 x(221)#221 + 478 x(222)#222 + 182 x(223)#223
     + 316 x(224)#224 + 485 x(225)#225 + 862 x(226)#226 + 438 x(227)#227
     + 831 x(228)#228 + 359 x(229)#229 + 750 x(230)#230 + 376 x(231)#231
     + 592 x(232)#232 + 534 x(233)#233 + 763 x(234)#234 + 350 x(235)#235
     + 77 x(236)#236 + 780 x(237)#237 + 52 x(238)#238 + 560 x(239)#239
     + 859 x(240)#240 + 424 x(241)#241 + 468 x(242)#242 + 33 x(243)#243
     + 961 x(244)#244 + 254 x(245)#245 + 951 x(246)#246 + 241 x(247)#247
     + 824 x(248)#248 + 480 x(249)#249 <= 62947
 c5: 165 x(0)#0 + 777 x(1)#1 + 623 x(2)#2 + 943 x(3)#3 + 200 x(4)#4 + 72 x(5)#5
     + 992 x(6)#6 + 247 x(7)#7 + 565 x(8)#8 + 511 x(9)#9 + 988 x(10)#10
     + 325 x(11)#11 + 564 x(12)#12 + 702 x(13)#13 + 767 x(14)#14 + 346 x(15)#15
     + 23 x(16)#16 + 541 x(17)#17 + 644 x(18)#18 + 996 x(19)#19 + 4 x(20)#20
     + 315 x(21)#21 + 311 x(22)#22 + 145 x(23)#23 + 947 x(24)#24 + 711 x(25)#25
     + 676 x(26)#26 + 907 x(27)#27 + 542 x(28)#28 + 351 x(29)#29 + 450 x(30)#30
     + 802 x(31)#31 + 420 x(32)#32 + 635 x(33)#33 + 118 x(34)#34 + 740 x(35)#35
     + 556 x(36)#36 + 232 x(37)#37 + 346 x(38)#38 + 973 x(39)#39 + 793 x(40)#40
     + 286 x(41)#41 + 602 x(42)#42 + 583 x(43)#43 + 914 x(44)#44 + 217 x(45)#45
     + 978 x(46)#46 + 359 x(47)#47 + 46 x(48)#48 + 656 x(49)#49 + 450 x(50)#50
     + 485 x(51)#51 + 82 x(52)#52 + 463 x(53)#53 + 852 x(54)#54 + 226 x(55)#55
     + 955 x(56)#56 + 685 x(57)#57 + 987 x(58)#58 + 711 x(59)#59 + 834 x(60)#60
     + 301 x(61)#61 + 595 x(62)#62 + 129 x(63)#63 + 794 x(64)#64 + 108 x(65)#65
     + 57 x(66)#66 + 727 x(67)#67 + 162 x(68)#68 + 799 x(69)#69 + 401 x(70)#70
     + 871 x(71)#71 + 243 x(72)#72 + 282 x(73)#73 + 673 x(74)#74 + 867 x(75)#75
     + 568 x(76)#76 + 848 x(77)#77 + 969 x(78)#78 + 335 x(79)#79 + 969 x(80)#80
     + 678 x(81)#81 + 198 x(82)#82 + 439 x(83)#83 + 782 x(84)#84 + 767 x(85)#85
     + 59 x(86)#86 + 555 x(87)#87 + 876 x(88)#88 + 749 x(89)#89 + 183 x(90)#90
     + 818 x(91)#91 + 89 x(92)#92 + 723 x(93)#93 + 173 x(94)#94 + 983 x(95)#95
     + 423 x(96)#96 + 533 x(97)#97 + 117 x(98)#98 + 662 x(99)#99
     + 858 x(100)#100 + 693 x(101)#101 + 982 x(102)#102 + 741 x(103)#103
     + 913 x(104)#104 + 260 x(105)#105 + 776 x(106)#106 + 354 x(107)#107
     + 751 x(108)#108 + 76 x(109)#109 + 515 x(110)#110 + 929 x(111)#111
     + 231 x(112)#112 + 528 x(113)#113 + 241 x(114)#114 + 490 x(115)#115
     + 521 x(116)#116 + 72 x(117)#117 + 700 x(118)#118 + 612 x(119)#119
     + 630 x(120)#120 + 326 x(121)#121 + 432 x(122)#122 + 428 x(123)#123
     + 725 x(124)#124 + 410 x(125)#125 + 590 x(126)#126 + 315 x(127)#127
     + 283 x(128)#128 + 646 x(129)#129 + 93 x(130)#130 + 50 x(131)#131
     + 405 x(132)#132 + 848 x(133)#133 + 640 x(134)#134 + 743 x(135)#135
     + 645 x(136)#136 + 307 x(137)#137 + 904 x(138)#138 + 661 x(139)#139
     + 374 x(140)#140 + 628 x(141)#141 + 192 x(142)#142 + 316 x(143)#143
     + 575 x(144)#144 + 293 x(145)#145 + 347 x(146)#146 + 478 x(147)#147
     + 169 x(148)#148 + 476 x(149)#149 + 646 x(150)#150 + 237 x(151)#151
     + 441 x(152)#152 + 241 x(153)#153 + 13 x(154)#154 + 644 x(155)#155
     + 148 x(156)#156 + 330 x(157)#157 + 750 x(158)#158 + 132 x(159)#159
     + 423 x(160)#160 + 350 x(161)#161 + 887 x(162)#162 + 139 x(163)#163
     + 17 x(164)#164 + 59 x(165)#165 + 729 x(166)#166 + 396 x(167)#167
     + 350 x(168)#168 + 751 x(169)#169 + 161 x(170)#170 + 682 x(171)#171
     + 36 x(172)#172 + 553 x(173)#173 + 2 x(174)#174 + 570 x(175)#175
     + 820 x(176)#176 + 694 x(177)#177 + 324 x(178)#178 + 986 x(179)#179
     + 288 x(180)#180 + 91 x(181)#181 + 194 x(182)#182 + 861 x(183)#183
     + 142 x(184)#184 + 485 x(185)#185 + 855 x(186)#186 + 852 x(187)#187
     + 920 x(188)#188 + 73 x(189)#189 + 591 x(190)#190 + 804 x(191)#191
     + 193 x(192)#192 + 717 x(193)#193 + 52 x(194)#194 + 618 x(195)#195
     + 368 x(196)#196 + 827 x(197)#197 + 559 x(198)#198 + 814 x(199)#199
     + 244 x(200)#200 + 785 x(201)#201 + 298 x(202)#202 + 522 x(203)#203
     + 796 x(204)#204 + 682 x(205)#205 + 279 x(206)#206 + 889 x(207)#207
     + 387 x(208)#208 + 154 x(209)#209 + 467 x(210)#210 + 880 x(211)#211
     + 125 x(212)#212 + 652 x(213)#213 + 672 x(214)#214 + 46 x(215)#215
     + 868 x(216)#216 + 755 x(217)#217 + 302 x(218)#218 + 643 x(219)#219
     + 593 x(220)#220 + 482 x(221)#221 + 543 x(222)#222 + 57 x(223)#223
     + 787 x(224)#224 + 756 x(225)#225 + 556 x(226)#226 + 149 x(227)#227
     + 49 x(228)#228 + 746 x(229)#229 + 706 x(230)#230 + 700 x(231)#231
     + 384 x(232)#232 + 769 x(233)#233 + 948 x(234)#234 + 261 x(235)#235
     + 163 x(236)#236 + 632 x(237)#237 + 552 x(238)#238 + 763 x(239)#239
     + 237 x(240)#240 + 730 x(241)#241 + 649 x(242)#242 + 159 x(243)#243
     + 152 x(244)#244 + 839 x(245)#245 + 208 x(246)#246 + 639 x(247)#247
     + 59 x(248)#248 + 842 x(249)#249 <= 63692
Bounds
 0 <= x(0)#0 <= 1
 0 <= x(1)#1 <= 1
 0 <= x(2)#2 <= 1
 0 <= x(3)#3 <= 1
 0 <= x(4)#4 <= 1
 0 <= x(5)#5 <= 1
 0 <= x(6)#6 <= 1
 0 <= x(7)#7 <= 1
 0 <= x(8)#8 <= 1
 0 <= x(9)#9 <= 1
 0 <= x(10)#10 <= 1
 0 <= x(11)#11 <= 1
 0 <= x(12)#12 <= 1
 0 <= x(13)#13 <= 1
 0 <= x(14)#14 <= 1
 0 <= x(15)#15 <= 1
 0 <= x(16)#16 <= 1
 0 <= x(17)#17 <= 1
 0 <= x(18)#18 <= 1
 0 <= x(19)#19 <= 1
 0 <= x(20)#20 <= 1
 0 <= x(21)#21 <= 1
 0 <= x(22)#22 <= 1
 0 <= x(23)#23 <= 1
 0 <= x(24)#24 <= 1
 0 <= x(25)#25 <= 1
 0 <= x(26)#26 <= 1
 0 <= x(27)#27 <= 1
 0 <= x(28)#28 <= 1
 0 <= x(29)#29 <= 1
 0 <= x(30)#30 <= 1
 0 <= x(31)#31 <= 1
 0 <= x(32)#32 <= 1
 0 <= x(33)#33 <= 1
 0 <= x(34)#34 <= 1
 0 <= x(35)#35 <= 1
 0 <= x(36)#36 <= 1
 0 <= x(37)#37 <= 1
 0 <= x(38)#38 <= 1
 0 <= x(39)#39 <= 1
 0 <= x(40)#40 <= 1
 0 <= x(41)#41 <= 1
 0 <= x(42)#42 <= 1
 0 <= x(43)#43 <= 1
 0 <= x(44)#44 <= 1
 0 <= x(45)#45 <= 1
 0 <= x(46)#46 <= 1
 0 <= x(47)#47 <= 1
 0 <= x(48)#48 <= 1
 0 <= x(49)#49 <= 1
 0 <= x(50)#50 <= 1
 0 <= x(51)#51 <= 1
 0 <= x(52)#52 <= 1
 0 <= x(53)#53 <= 1
 0 <= x(54)#54 <= 1
 0 <= x(55)#55 <= 1
 0 <= x(56)#56 <= 1
 0 <= x(57)#57 <= 1
 0 <= x(58)#58 <= 1
 0 <= x(59)#59 <= 1
 0 <= x(60)#60 <= 1
 0 <= x(61)#61 <= 1
 0 <= x(62)#62 <= 1
 0 <= x(63)#63 <= 1
 0 <= x(64)#64 <= 1
 0 <= x(65)#65 <= 1
 0 <= x(66)#66 <= 1
 0 <= x(67)#67 <= 1
 0 <= x(68)#68 <= 1
 0 <= x(69)#69 <= 1
 0 <= x(70)#70 <= 1
 0 <= x(71)#71 <= 1
 0 <= x(72)#72 <= 1
 0 <= x(73)#73 <= 1
 0 <= x(74)#74 <= 1
 0 <= x(75)#75 <= 1
 0 <= x(76)#76 <= 1
 0 <= x(77)#77 <= 1
 0 <= x(78)#78 <= 1
 0 <= x(79)#79 <= 1
 0 <= x(80)#80 <= 1
 0 <= x(81)#81 <= 1
 0 <= x(82)#82 <= 1
 0 <= x(83)#83 <= 1
 0 <= x(84)#84 <= 1
 0 <= x(85)#85 <= 1
 0 <= x(86)#86 <= 1
 0 <= x(87)#87 <= 1
 0 <= x(88)#88 <= 1
 0 <= x(89)#89 <= 1
 0 <= x(90)#90 <= 1
 0 <= x(91)#91 <= 1
 0 <= x(92)#92 <= 1
 0 <= x(93)#93 <= 1
 0 <= x(94)#94 <= 1
 0 <= x(95)#95 <= 1
 0 <= x(96)#96 <= 1
 0 <= x(97)#97 <= 1
 0 <= x(98)#98 <= 1
 0 <= x(99)#99 <= 1
 0 <= x(100)#100 <= 1
 0 <= x(101)#101 <= 1
 0 <= x(102)#102 <= 1
 0 <= x(103)#103 <= 1
 0 <= x(104)#104 <= 1
 0 <= x(105)#105 <= 1
 0 <= x(106)#106 <= 1
 0 <= x(107)#107 <= 1
 0 <= x(108)#108 <= 1
 0 <= x(109)#109 <= 1
 0 <= x(110)#110 <= 1
 0 <= x(111)#111 <= 1
 0 <= x(112)#112 <= 1
 0 <= x(113)#113 <= 1
 0 <= x(114)#114 <= 1
 0 <= x(115)#115 <= 1
 0 <= x(116)#116 <= 1
 0 <= x(117)#117 <= 1
 0 <= x(118)#118 <= 1
 0 <= x(119)#119 <= 1
 0 <= x(120)#120 <= 1
 0 <= x(121)#121 <= 1
 0 <= x(122)#122 <= 1
 0 <= x(123)#123 <= 1
 0 <= x(124)#124 <= 1
 0 <= x(125)#125 <= 1
 0 <= x(126)#126 <= 1
 0 <= x(127)#127 <= 1
 0 <= x(128)#128 <= 1
 0 <= x(129)#129 <= 1
 0 <= x(130)#130 <= 1
 0 <= x(131)#131 <= 1
 0 <= x(132)#132 <= 1
 0 <= x(133)#133 <= 1
 0 <= x(134)#134 <= 1
 0 <= x(135)#135 <= 1
 0 <= x(136)#136 <= 1
 0 <= x(137)#137 <= 1
 0 <= x(138)#138 <= 1
 0 <= x(139)#139 <= 1
 0 <= x(140)#140 <= 1
 0 <= x(141)#141 <= 1
 0 <= x(142)#142 <= 1
 0 <= x(143)#143 <= 1
 0 <= x(144)#144 <= 1
 0 <= x(145)#145 <= 1
 0 <= x(146)#146 <= 1
 0 <= x(147)#147 <= 1
 0 <= x(148)#148 <= 1
 0 <= x(149)#149 <= 1
 0 <= x(150)#150 <= 1
 0 <= x(151)#151 <= 1
 0 <= x(152)#152 <= 1
 0 <= x(153)#153 <= 1
 0 <= x(154)#154 <= 1
 0 <= x(155)#155 <= 1
 0 <= x(156)#156 <= 1
 0 <= x(157)#157 <= 1
 0 <= x(158)#158 <= 1
 0 <= x(159)#159 <= 1
 0 <= x(160)#160 <= 1
 0 <= x(161)#161 <= 1
 0 <= x(162)#162 <= 1
 0 <= x(163)#163 <= 1
 0 <= x(164)#164 <= 1
 0 <= x(165)#165 <= 1
 0 <= x(166)#166 <= 1
 0 <= x(167)#167 <= 1
 0 <= x(168)#168 <= 1
 0 <= x(169)#169 <= 1
 0 <= x(170)#170 <= 1
 0 <= x(171)#171 <= 1
 0 <= x(172)#172 <= 1
 0 <= x(173)#173 <= 1
 0 <= x(174)#174 <= 1
 0 <= x(175)#175 <= 1
 0 <= x(176)#176 <= 1
 0 <= x(177)#177 <= 1
 0 <= x(178)#178 <= 1
 0 <= x(179)#179 <= 1
 0 <= x(180)#180 <= 1
 0 <= x(181)#181 <= 1
 0 <= x(182)#182 <= 1
 0 <= x(183)#183 <= 1
 0 <= x(184)#184 <= 1
 0 <= x(185)#185 <= 1
 0 <= x(186)#186 <= 1
 0 <= x(187)#187 <= 1
 0 <= x(188)#188 <= 1
 0 <= x(189)#189 <= 1
 0 <= x(190)#190 <= 1
 0 <= x(191)#191 <= 1
 0 <= x(192)#192 <= 1
 0 <= x(193)#193 <= 1
 0 <= x(194)#194 <= 1
 0 <= x(195)#195 <= 1
 0 <= x(196)#196 <= 1
 0 <= x(197)#197 <= 1
 0 <= x(198)#198 <= 1
 0 <= x(199)#199 <= 1
 0 <= x(200)#200 <= 1
 0 <= x(201)#201 <= 1
 0 <= x(202)#202 <= 1
 0 <= x(203)#203 <= 1
 0 <= x(204)#204 <= 1
 0 <= x(205)#205 <= 1
 0 <= x(206)#206 <= 1
 0 <= x(207)#207 <= 1
 0 <= x(208)#208 <= 1
 0 <= x(209)#209 <= 1
 0 <= x(210)#210 <= 1
 0 <= x(211)#211 <= 1
 0 <= x(212)#212 <= 1
 0 <= x(213)#213 <= 1
 0 <= x(214)#214 <= 1
 0 <= x(215)#215 <= 1
 0 <= x(216)#216 <= 1
 0 <= x(217)#217 <= 1
 0 <= x(218)#218 <= 1
 0 <= x(219)#219 <= 1
 0 <= x(220)#220 <= 1
 0 <= x(221)#221 <= 1
 0 <= x(222)#222 <= 1
 0 <= x(223)#223 <= 1
 0 <= x(224)#224 <= 1
 0 <= x(225)#225 <= 1
 0 <= x(226)#226 <= 1
 0 <= x(227)#227 <= 1
 0 <= x(228)#228 <= 1
 0 <= x(229)#229 <= 1
 0 <= x(230)#230 <= 1
 0 <= x(231)#231 <= 1
 0 <= x(232)#232 <= 1
 0 <= x(233)#233 <= 1
 0 <= x(234)#234 <= 1
 0 <= x(235)#235 <= 1
 0 <= x(236)#236 <= 1
 0 <= x(237)#237 <= 1
 0 <= x(238)#238 <= 1
 0 <= x(239)#239 <= 1
 0 <= x(240)#240 <= 1
 0 <= x(241)#241 <= 1
 0 <= x(242)#242 <= 1
 0 <= x(243)#243 <= 1
 0 <= x(244)#244 <= 1
 0 <= x(245)#245 <= 1
 0 <= x(246)#246 <= 1
 0 <= x(247)#247 <= 1
 0 <= x(248)#248 <= 1
 0 <= x(249)#249 <= 1
Generals
 x(0)#0  x(1)#1  x(2)#2  x(3)#3  x(4)#4  x(5)#5  x(6)#6  x(7)#7  x(8)#8 
 x(9)#9  x(10)#10  x(11)#11  x(12)#12  x(13)#13  x(14)#14  x(15)#15  x(16)#16 
 x(17)#17  x(18)#18  x(19)#19  x(20)#20  x(21)#21  x(22)#22  x(23)#23 
 x(24)#24  x(25)#25  x(26)#26  x(27)#27  x(28)#28  x(29)#29  x(30)#30 
 x(31)#31  x(32)#32  x(33)#33  x(34)#34  x(35)#35  x(36)#36  x(37)#37 
 x(38)#38  x(39)#39  x(40)#40  x(41)#41  x(42)#42  x(43)#43  x(44)#44 
 x(45)#45  x(46)#46  x(47)#47  x(48)#48  x(49)#49  x(50)#50  x(51)#51 
 x(52)#52  x(53)#53  x(54)#54  x(55)#55  x(56)#56  x(57)#57  x(58)#58 
 x(59)#59  x(60)#60  x(61)#61  x(62)#62  x(63)#63  x(64)#64  x(65)#65 
 x(66)#66  x(67)#67  x(68)#68  x(69)#69  x(70)#70  x(71)#71  x(72)#72 
 x(73)#73  x(74)#74  x(75)#75  x(76)#76  x(77)#77  x(78)#78  x(79)#79 
 x(80)#80  x(81)#81  x(82)#82  x(83)#83  x(84)#84  x(85)#85  x(86)#86 
 x(87)#87  x(88)#88  x(89)#89  x(90)#90  x(91)#91  x(92)#92  x(93)#93 
 x(94)#94  x(95)#95  x(96)#96  x(97)#97  x(98)#98  x(99)#99  x(100)#100 
 x(101)#101  x(102)#102  x(103)#103  x(104)#104  x(105)#105  x(106)#106 
 x(107)#107  x(108)#108  x(109)#109  x(110)#110  x(111)#111  x(112)#112 
 x(113)#113  x(114)#114  x(115)#115  x(116)#116  x(117)#117  x(118)#118 
 x(119)#119  x(120)#120  x(121)#121  x(122)#122  x(123)#123  x(124)#124 
 x(125)#125  x(126)#126  x(127)#127  x(128)#128  x(129)#129  x(130)#130 
 x(131)#131  x(132)#132  x(133)#133  x(134)#134  x(135)#135  x(136)#136 
 x(137)#137  x(138)#138  x(139)#139  x(140)#140  x(141)#141  x(142)#142 
 x(143)#143  x(144)#144  x(145)#145  x(146)#146  x(147)#147  x(148)#148 
 x(149)#149  x(150)#150  x(151)#151  x(152)#152  x(153)#153  x(154)#154 
 x(155)#155  x(156)#156  x(157)#157  x(158)#158  x(159)#159  x(160)#160 
 x(161)#161  x(162)#162  x(163)#163  x(164)#164  x(165)#165  x(166)#166 
 x(167)#167  x(168)#168  x(169)#169  x(170)#170  x(171)#171  x(172)#172 
 x(173)#173  x(174)#174  x(175)#175  x(176)#176  x(177)#177  x(178)#178 
 x(179)#179  x(180)#180  x(181)#181  x(182)#182  x(183)#183  x(184)#184 
 x(185)#185  x(186)#186  x(187)#187  x(188)#188  x(189)#189  x(190)#190 
 x(191)#191  x(192)#192  x(193)#193  x(194)#194  x(195)#195  x(196)#196 
 x(197)#197  x(198)#198  x(199)#199  x(200)#200  x(201)#201  x(202)#202 
 x(203)#203  x(204)#204  x(205)#205  x(206)#206  x(207)#207  x(208)#208 
 x(209)#209  x(210)#210  x(211)#211  x(212)#212  x(213)#213  x(214)#214 
 x(215)#215  x(216)#216  x(217)#217  x(218)#218  x(219)#219  x(220)#220 
 x(221)#221  x(222)#222  x(223)#223  x(224)#224  x(225)#225  x(226)#226 
 x(227)#227  x(228)#228  x(229)#229  x(230)#230  x(231)#231  x(232)#232 
 x(233)#233  x(234)#234  x(235)#235  x(236)#236  x(237)#237  x(238)#238 
 x(239)#239  x(240)#240  x(241)#241  x(242)#242  x(243)#243  x(244)#244 
 x(245)#245  x(246)#246  x(247)#247  x(248)#248  x(249)#249 
End
